qbf_easy_train/easy_2760_UNSAT.qdimacs
p cnf 42 129
a 24 33 29 0
e 1 2 3 4 5 6 7 8 9 10 11 12 13 14 15 16 17 18 19 20 21 22 23 25 26 27 28 30 31 32 34 35 36 37 38 39 40 41 42 0
2 -3 -4 0
-2 3 -4 0
2 3 4 0
-2 -3 4 0
-4 5 -6 0
4 -5 -6 0
-4 -5 6 0
4 5 6 0
1 6 -7 0
-1 -6 -7 0
1 -6 7 0
-1 6 7 0
-1 8 -9 0
1 -8 -9 0
-1 -8 9 0
1 8 9 0
11 -9 0
11 -10 0
9 10 -11 0
-11 -6 -12 0
11 6 -12 0
-11 6 12 0
11 -6 12 0
-6 -1 -13 0
6 1 -13 0
-6 1 13 0
6 -1 13 0
-15 10 0
-15 14 0
-10 -14 15 0
16 15 0
16 -5 0
-15 5 -16 0
-13 16 -17 0
13 -16 -17 0
-13 -16 17 0
13 16 17 0
18 -16 0
18 14 0
16 -14 -18 0
19 -17 0
19 18 0
17 -18 -19 0
20 12 0
20 19 0
-12 -19 -20 0
21 -7 0
21 -20 0
7 20 -21 0
22 -17 0
22 17 0
-8 -22 -23 0
8 22 -23 0
-8 22 23 0
8 -22 23 0
-24 -21 0
-24 23 0
21 -23 24 0
-25 -3 0
-25 -17 0
3 17 25 0
1 25 -26 0
-1 -25 -26 0
1 -25 26 0
-1 25 26 0
-27 -24 0
-27 -26 0
24 26 27 0
28 -15 0
28 -9 0
15 9 -28 0
-29 5 0
-29 -6 0
-5 6 29 0
-30 28 0
-30 -29 0
-28 29 30 0
-31 -5 0
-31 4 0
5 -4 31 0
30 31 -32 0
-30 -31 -32 0
30 -31 32 0
-30 31 32 0
10 -8 -34 0
-10 8 -34 0
10 8 34 0
-10 -8 34 0
5 15 -35 0
-5 -15 -35 0
5 -15 35 0
-5 15 35 0
35 -15 -36 0
-35 15 -36 0
35 15 36 0
-35 -15 36 0
-37 -34 0
-37 -36 0
34 36 37 0
33 37 -38 0
-33 -37 -38 0
33 -37 38 0
-33 37 38 0
32 38 -39 0
-32 -38 -39 0
32 -38 39 0
-32 38 39 0
40 17 0
40 17 0
-17 -40 0
41 -39 0
41 40 0
39 -40 -41 0
-42 -27 0
-42 41 0
27 -41 42 0
-23 39 33 -8 36 -9 0
-16 35 -12 0
-41 -24 -21 -33 14 22 9 0
18 38 -20 4 0
39 19 -13 -32 3 -29 -9 -31 0
-10 -15 -25 24 -20 -8 0
12 4 -2 14 15 42 -11 0
-8 4 10 27 -30 0
30 -24 -13 27 -25 0
-38 -41 -11 42 0
20 21 25 0
-8 -39 15 -11 0
42 0
