sat_easy_train/easy_2760_UNSAT.dimacs
p cnf 134 446
1 2 -3 0
-1 -2 -3 0
1 -2 3 0
-1 2 3 0
-1 -3 -4 0
1 3 -4 0
-1 3 4 0
1 -3 4 0
6 -4 0
6 -5 0
4 5 -6 0
-9 7 0
-9 8 0
-7 -8 9 0
-11 9 0
-11 -10 0
-9 10 11 0
12 -6 0
12 -11 0
6 11 -12 0
-13 -1 0
-13 -2 0
1 2 13 0
14 15 0
-14 15 0
-16 7 0
-16 14 0
-7 -14 16 0
15 16 -17 0
-15 -16 -17 0
15 -16 17 0
-15 16 17 0
-18 13 0
-18 17 0
-13 -17 18 0
-19 15 0
-19 8 0
-15 -8 19 0
10 8 -20 0
-10 -8 -20 0
10 -8 20 0
-10 8 20 0
21 22 0
-21 22 0
-23 17 0
-23 22 0
-17 -22 23 0
-24 -16 0
-24 -23 0
16 23 24 0
-25 20 0
-25 24 0
-20 -24 25 0
26 -19 0
26 25 0
19 -25 -26 0
-27 3 -28 0
27 -3 -28 0
-27 -3 28 0
27 3 28 0
-29 -19 0
-29 -28 0
19 28 29 0
32 -25 0
32 31 0
25 -31 -32 0
-33 30 0
-33 -32 0
-30 32 33 0
34 -33 0
34 15 0
33 -15 -34 0
35 29 0
35 -34 0
-29 34 -35 0
-36 -26 0
-36 35 0
26 -35 36 0
37 -5 0
37 28 0
5 -28 -37 0
-38 -37 0
-38 8 0
37 -8 38 0
-39 8 0
-39 38 0
-8 -38 39 0
-40 39 0
-40 -27 0
-39 27 40 0
-42 41 0
-42 -23 0
-41 23 42 0
43 -40 0
43 -42 0
40 42 -43 0
44 -36 0
44 43 0
36 -43 -44 0
-41 2 -45 0
41 -2 -45 0
-41 -2 45 0
41 2 45 0
-46 -22 0
-46 16 0
22 -16 46 0
-47 -45 0
-47 -46 0
45 46 47 0
7 -3 -48 0
-7 3 -48 0
7 3 48 0
-7 -3 48 0
-49 41 0
-49 48 0
-41 -48 49 0
-50 -47 0
-50 49 0
47 -49 50 0
51 -44 0
51 50 0
44 -50 -51 0
52 -18 0
52 -51 0
18 51 -52 0
-7 30 -53 0
7 -30 -53 0
-7 -30 53 0
7 30 53 0
17 2 -54 0
-17 -2 -54 0
17 -2 54 0
-17 2 54 0
-55 -54 0
-55 -25 0
54 25 55 0
56 -15 0
56 -21 0
15 21 -56 0
-57 -48 0
-57 56 0
48 -56 57 0
58 55 0
58 -57 0
-55 57 -58 0
59 -53 0
59 -58 0
53 58 -59 0
60 52 0
60 59 0
-52 -59 -60 0
61 -12 0
61 60 0
12 -60 -61 0
63 -62 0
63 20 0
62 -20 -63 0
63 -16 -64 0
-63 16 -64 0
63 16 64 0
-63 -16 64 0
65 -64 0
65 -29 0
64 29 -65 0
66 20 0
66 -46 0
-20 46 -66 0
67 -66 0
67 -3 0
66 3 -67 0
68 67 0
68 26 0
-67 -26 -68 0
-69 -13 0
-69 -68 0
13 68 69 0
-8 -7 -70 0
8 7 -70 0
-8 7 70 0
8 -7 70 0
71 69 0
71 -70 0
-69 70 -71 0
72 -31 0
72 -62 0
31 62 -72 0
26 -28 -73 0
-26 28 -73 0
26 28 73 0
-26 -28 73 0
74 72 0
74 -73 0
-72 73 -74 0
-5 4 -75 0
5 -4 -75 0
-5 -4 75 0
5 4 75 0
-76 75 0
-76 -37 0
-75 37 76 0
-77 -76 0
-77 38 0
76 -38 77 0
-78 -19 0
-78 31 0
19 -31 78 0
79 -7 0
79 -78 0
7 78 -79 0
-80 -77 0
-80 79 0
77 -79 80 0
-81 -74 0
-81 -80 0
74 80 81 0
10 31 -82 0
-10 -31 -82 0
10 -31 82 0
-10 31 82 0
-83 33 0
-83 82 0
-33 -82 83 0
-85 -84 0
-85 -41 0
84 41 85 0
-85 5 -86 0
85 -5 -86 0
-85 -5 86 0
85 5 86 0
83 -86 -87 0
-83 86 -87 0
83 86 87 0
-83 -86 87 0
88 87 0
88 3 0
-87 -3 -88 0
81 -88 -89 0
-81 88 -89 0
81 88 89 0
-81 -88 89 0
-71 -89 -90 0
71 89 -90 0
-71 89 90 0
71 -89 90 0
-91 -21 0
-91 -83 0
21 83 91 0
91 -92 -93 0
-91 92 -93 0
91 92 93 0
-91 -92 93 0
90 93 -94 0
-90 -93 -94 0
90 -93 94 0
-90 93 94 0
95 -65 0
95 -94 0
65 94 -95 0
-96 66 0
-96 27 0
-66 -27 96 0
97 -39 0
97 46 0
39 -46 -97 0
98 66 0
98 -37 0
-66 37 -98 0
99 -98 0
99 -7 0
98 7 -99 0
-100 -97 0
-100 -99 0
97 99 100 0
-101 -96 0
-101 100 0
96 -100 101 0
-102 -95 0
-102 -101 0
95 101 102 0
104 -30 0
104 103 0
30 -103 -104 0
-105 23 0
-105 1 0
-23 -1 105 0
78 -62 -106 0
-78 62 -106 0
78 62 106 0
-78 -62 106 0
-105 106 -107 0
105 -106 -107 0
-105 -106 107 0
105 106 107 0
108 -85 0
108 7 0
85 -7 -108 0
109 -66 0
109 108 0
66 -108 -109 0
110 76 0
110 72 0
-76 -72 -110 0
109 110 -111 0
-109 -110 -111 0
109 -110 111 0
-109 110 111 0
-107 -111 -112 0
107 111 -112 0
-107 111 112 0
107 -111 112 0
104 -112 -113 0
-104 112 -113 0
104 112 113 0
-104 -112 113 0
114 -98 0
114 -72 0
98 72 -114 0
115 -113 0
115 -114 0
113 114 -115 0
-116 -41 0
-116 -5 0
41 5 116 0
54 87 -117 0
-54 -87 -117 0
54 -87 117 0
-54 87 117 0
63 -7 -118 0
-63 7 -118 0
63 7 118 0
-63 -7 118 0
-117 118 -119 0
117 -118 -119 0
-117 -118 119 0
117 118 119 0
120 23 0
120 119 0
-23 -119 -120 0
116 -120 -121 0
-116 120 -121 0
116 120 121 0
-116 -120 121 0
78 27 -122 0
-78 -27 -122 0
78 -27 122 0
-78 27 122 0
-123 41 0
-123 -39 0
-41 39 123 0
-122 -123 -124 0
122 123 -124 0
-122 123 124 0
122 -123 124 0
2 -4 -125 0
-2 4 -125 0
2 4 125 0
-2 -4 125 0
124 125 -126 0
-124 -125 -126 0
124 -125 126 0
-124 125 126 0
-127 -13 0
-127 66 0
13 -66 127 0
-128 -126 0
-128 -127 0
126 127 128 0
129 3 0
129 8 0
-3 -8 -129 0
128 129 -130 0
-128 -129 -130 0
128 -129 130 0
-128 129 130 0
131 -121 0
131 130 0
121 -130 -131 0
132 -115 0
132 131 0
115 -131 -132 0
102 132 -133 0
-102 -132 -133 0
102 -132 133 0
-102 132 133 0
134 61 0
134 133 0
-61 -133 -134 0
-34 -66 -28 -112 0
-93 90 124 0
-120 42 94 0
132 -54 -114 126 -50 0
-126 113 5 -25 45 0
43 -96 -114 4 0
-7 95 -94 38 0
-118 24 0
-57 -47 38 0
108 74 -114 0
-22 -75 -132 0
66 34 11 0
-89 66 0
77 97 49 0
-123 -25 -122 -37 0
-116 99 -108 120 0
13 -79 0
-51 -4 -68 -133 -82 -58 0
-93 -2 -41 -86 18 0
-5 15 78 -93 0
-26 -119 15 -45 63 0
-123 -119 -67 59 53 0
106 88 94 -113 26 34 0
75 -112 71 0
-105 30 84 -63 0
32 84 13 0
46 -32 -91 -19 0
-81 4 27 113 0
130 74 59 25 0
-67 -44 27 -60 -105 77 0
-38 134 86 -64 84 0
127 -126 95 39 40 0
3 60 -14 125 34 0
-93 71 21 1 89 0
111 92 -94 33 114 22 0
-91 66 111 56 0
90 40 7 -86 0
-50 90 64 10 -49 0
37 -80 -46 -31 0
98 -91 -104 15 -121 30 0
-133 128 98 130 -58 -31 0
7 18 0
-9 77 -58 88 -21 -100 0
114 60 0
-4 63 -90 0
-114 41 44 -5 31 0
-90 -76 -19 11 0
-6 -26 -70 29 -20 0
-20 37 63 0
-124 -38 0
-21 -5 -44 0
-22 -120 113 14 -28 0
43 17 0
130 -47 -123 36 0
92 86 88 -107 130 -53 0
98 104 32 21 -30 0
-15 76 -4 127 0
-17 -131 0
134 0
